CR = {CR1, CR2, CR3, CR4, CR5, CR6, CR7, CR8, CR9, CR10, CR17, CR16, CR15, CR14, CR13, CR12, CR11, CR27, CR18, CR19, CR20, CR21, CR22, CR23, CR24, CR25, CR26, CR28};

ASSET = {F_35, RQ_9, Tornado_ECR, RQ_4A, RQ_4D, MQ_1B, Lanza_LTR_35};

INTELL = {EO, IR, MTI, SAR, FMV, SIGINT, ELINT};

NAI = {'6012884827252927', '6012921727253481', '6012915227253638', '6071333630115474', '6092428726131586', '6071320430114297', '6071408130114972', '6053093527243154', '6071301030115182', '6063536527226914', '6115483928990382', '6095921729116306', '6095864129116663', '6095881629115503', '6095800929116202', '6095778029115702', '6095822029115388', '6095834529115767', '6115444928991090', '6071264730113953', '6071263630114448', '6124326429231728', '6048660926549940', '6095813829116580', '6095896529115700', '6048672726913221', '6051673826706071', '6095921529115856'};

BASE = {'61042497281418'};

crl = [CR1, CR2, CR3, CR4, CR5, CR6, CR7, CR8, CR9, CR10, CR17, CR16, CR15, CR14, CR13, CR12, CR11, CR27, CR18, CR19, CR20, CR21, CR22, CR23, CR24, CR25, CR26, CR28];

asset_list = [F_35, RQ_9, Tornado_ECR, RQ_4A, RQ_4D, MQ_1B, Lanza_LTR_35];

nai_list = ['6012884827252927', '6012921727253481', '6012915227253638', '6071333630115474', '6092428726131586', '6071320430114297', '6071408130114972', '6053093527243154', '6071301030115182', '6063536527226914', '6115483928990382', '6095921729116306', '6095864129116663', '6095881629115503', '6095800929116202', '6095778029115702', '6095822029115388', '6095834529115767', '6115444928991090', '6071264730113953', '6071263630114448', '6124326429231728', '6048660926549940', '6095813829116580', '6095896529115700', '6048672726913221', '6051673826706071', '6095921529115856'];

base_list = ['61042497281418'];

required_int = [SAR, MTI, EO, MTI, EO, MTI, EO, FMV, EO, FMV, EO, EO, MTI, EO, MTI, EO, MTI, MTI, ELINT, MTI, EO, MTI, FMV, MTI, EO, SIGINT, SAR, EO];

priority = [1, 1, 1, 1, 1, 1, 1, 1, 1, 1, 1, 1, 1, 1, 1, 1, 1, 1, 1, 1, 1, 1, 1, 1, 1, 1, 1, 1];

location = ['6012884827252927', '6012921727253481', '6012915227253638', '6071333630115474', '6092428726131586', '6071320430114297', '6071408130114972', '6053093527243154', '6071301030115182', '6063536527226914', '6115483928990382', '6095921729116306', '6095864129116663', '6095881629115503', '6095800929116202', '6095778029115702', '6095822029115388', '6095834529115767', '6115444928991090', '6071264730113953', '6071263630114448', '6124326429231728', '6048660926549940', '6095813829116580', '6095896529115700', '6048672726913221', '6051673826706071', '6095921529115856'];

location_int = [1, 2, 3, 4, 5, 6, 7, 8, 9, 10, 11, 12, 13, 14, 15, 16, 17, 18, 19, 20, 21, 22, 23, 24, 25, 26, 27, 28];

required_start_time = [900, 900, 900, 900, 930, 960, 960, 540, 540, 540, 660, 600, 600, 600, 600, 600, 600, 930, 660, 780, 780, 780, 810, 840, 840, 840, 870, 930];

required_duration = [30, 30, 30, 30, 30, 30, 30, 30, 30, 60, 30, 90, 90, 30, 30, 30, 30, 30, 30, 60, 60, 60, 30, 30, 30, 60, 30, 30];

ops_start_time = [900, 900, 900, 900, 930, 960, 960, 540, 540, 540, 660, 600, 600, 600, 600, 600, 600, 930, 660, 780, 780, 780, 810, 840, 840, 840, 870, 930];

ops_duration = [30, 30, 30, 30, 30, 30, 30, 30, 30, 60, 30, 90, 90, 30, 30, 30, 30, 30, 30, 60, 60, 60, 30, 30, 30, 60, 30, 30];

sensor = [| 1, 1, 1, 1, 1, 1, 1
| 1, 1, 1, 1, 1, 1, 1
| 1, 1, 1, 1, 1, 1, 1
| 1, 1, 1, 1, 1, 1, 1
| 1, 1, 1, 1, 1, 1, 1
| 1, 1, 1, 1, 1, 1, 1
| 1, 1, 1, 1, 1, 1, 1|];

capacity = [1440, 1440, 1440, 1440, 1440, 1440, 1440];

on_station = [0, 0, 0, 0, 0, 0, 0];

home = ['61042497281418', '61042497281418', '61042497281418', '61042497281418', '61042497281418', '61042497281418', '61042497281418'];

home_int = [|1
|1
|1
|1
|1
|1
|1
|];

cost = [|0, 0, 0, 33, 21, 33, 33, 9, 33, 11, 29, 27, 27, 27, 27, 27, 27, 27, 29, 33, 33, 32, 11, 27, 27, 9, 10, 27, 22, 
|0, 0, 0, 33, 21, 33, 33, 9, 33, 11, 29, 27, 27, 27, 27, 27, 27, 27, 29, 33, 33, 32, 11, 27, 27, 9, 10, 27, 22, 
|0, 0, 0, 33, 21, 33, 33, 9, 33, 11, 29, 27, 27, 27, 27, 27, 27, 27, 29, 33, 33, 32, 11, 27, 27, 9, 10, 27, 22, 
|33, 33, 33, 0, 42, 0, 0, 31, 0, 31, 15, 12, 12, 12, 12, 12, 12, 12, 15, 0, 0, 15, 38, 12, 12, 34, 36, 12, 22, 
|21, 21, 21, 42, 0, 42, 42, 15, 42, 13, 30, 31, 31, 31, 31, 31, 31, 31, 30, 42, 42, 33, 11, 31, 31, 13, 11, 31, 21, 
|33, 33, 33, 0, 42, 0, 0, 31, 0, 31, 15, 12, 12, 12, 12, 12, 12, 12, 15, 0, 0, 15, 38, 12, 12, 34, 36, 12, 22, 
|33, 33, 33, 0, 42, 0, 0, 31, 0, 31, 15, 12, 12, 12, 12, 12, 12, 12, 15, 0, 0, 15, 38, 12, 12, 34, 36, 12, 22, 
|9, 9, 9, 31, 15, 31, 31, 0, 31, 3, 23, 22, 22, 22, 22, 22, 22, 22, 23, 31, 31, 26, 8, 22, 22, 4, 6, 22, 15, 
|33, 33, 33, 0, 42, 0, 0, 31, 0, 31, 15, 12, 12, 12, 12, 12, 12, 12, 15, 0, 0, 15, 38, 12, 12, 34, 36, 12, 22, 
|11, 11, 11, 31, 13, 31, 31, 3, 31, 0, 22, 21, 21, 21, 21, 21, 21, 21, 22, 31, 31, 25, 8, 21, 21, 5, 6, 21, 13, 
|29, 29, 29, 15, 30, 15, 15, 23, 15, 22, 0, 5, 5, 5, 5, 5, 5, 5, 0, 15, 15, 4, 29, 5, 5, 26, 28, 5, 10, 
|27, 27, 27, 12, 31, 12, 12, 22, 12, 21, 5, 0, 0, 0, 0, 0, 0, 0, 5, 12, 12, 7, 29, 0, 0, 25, 27, 0, 11, 
|27, 27, 27, 12, 31, 12, 12, 22, 12, 21, 5, 0, 0, 0, 0, 0, 0, 0, 5, 12, 12, 7, 29, 0, 0, 25, 27, 0, 11, 
|27, 27, 27, 12, 31, 12, 12, 22, 12, 21, 5, 0, 0, 0, 0, 0, 0, 0, 5, 12, 12, 7, 29, 0, 0, 25, 27, 0, 11, 
|27, 27, 27, 12, 31, 12, 12, 22, 12, 21, 5, 0, 0, 0, 0, 0, 0, 0, 5, 12, 12, 7, 29, 0, 0, 25, 27, 0, 11, 
|27, 27, 27, 12, 31, 12, 12, 22, 12, 21, 5, 0, 0, 0, 0, 0, 0, 0, 5, 12, 12, 7, 29, 0, 0, 25, 27, 0, 11, 
|27, 27, 27, 12, 31, 12, 12, 22, 12, 21, 5, 0, 0, 0, 0, 0, 0, 0, 5, 12, 12, 7, 29, 0, 0, 25, 27, 0, 11, 
|27, 27, 27, 12, 31, 12, 12, 22, 12, 21, 5, 0, 0, 0, 0, 0, 0, 0, 5, 12, 12, 7, 29, 0, 0, 25, 27, 0, 11, 
|29, 29, 29, 15, 30, 15, 15, 23, 15, 22, 0, 5, 5, 5, 5, 5, 5, 5, 0, 15, 15, 4, 29, 5, 5, 26, 28, 5, 10, 
|33, 33, 33, 0, 42, 0, 0, 31, 0, 31, 15, 12, 12, 12, 12, 12, 12, 12, 15, 0, 0, 15, 38, 12, 12, 34, 36, 12, 22, 
|33, 33, 33, 0, 42, 0, 0, 31, 0, 31, 15, 12, 12, 12, 12, 12, 12, 12, 15, 0, 0, 15, 38, 12, 12, 34, 36, 12, 22, 
|32, 32, 32, 15, 33, 15, 15, 26, 15, 25, 4, 7, 7, 7, 7, 7, 7, 7, 4, 15, 15, 0, 33, 7, 7, 29, 31, 7, 12, 
|11, 11, 11, 38, 11, 38, 38, 8, 38, 8, 29, 29, 29, 29, 29, 29, 29, 29, 29, 38, 38, 33, 0, 29, 29, 4, 2, 29, 21, 
|27, 27, 27, 12, 31, 12, 12, 22, 12, 21, 5, 0, 0, 0, 0, 0, 0, 0, 5, 12, 12, 7, 29, 0, 0, 25, 27, 0, 11, 
|27, 27, 27, 12, 31, 12, 12, 22, 12, 21, 5, 0, 0, 0, 0, 0, 0, 0, 5, 12, 12, 7, 29, 0, 0, 25, 27, 0, 11, 
|9, 9, 9, 34, 13, 34, 34, 4, 34, 5, 26, 25, 25, 25, 25, 25, 25, 25, 26, 34, 34, 29, 4, 25, 25, 0, 3, 25, 18, 
|10, 10, 10, 36, 11, 36, 36, 6, 36, 6, 28, 27, 27, 27, 27, 27, 27, 27, 28, 36, 36, 31, 2, 27, 27, 3, 0, 27, 19, 
|27, 27, 27, 12, 31, 12, 12, 22, 12, 21, 5, 0, 0, 0, 0, 0, 0, 0, 5, 12, 12, 7, 29, 0, 0, 25, 27, 0, 11, 
|22, 22, 22, 22, 21, 22, 22, 15, 22, 13, 10, 11, 11, 11, 11, 11, 11, 11, 10, 22, 22, 12, 21, 11, 11, 18, 19, 11, 0|];

